#######################################
### Exact MIP solver for the HHCRSP ###
#######################################
-- Instance file: new-instances/HHCRSP_75_15_45_0.4_R_RC.txt
-- Max threads: 4
-- Time limit: 999999 seconds
-- Use initial solution: No
Trivial flow violations prevented generating 19665 variables.
Model exported.
Version identifier: 20.1.0.0 | 2020-11-10 | 9bedb6d68
CPXPARAM_Threads                                 4
CPXPARAM_TimeLimit                               999999
Parallel mode: deterministic, using up to 4 threads for concurrent optimization:
 * Starting dual Simplex on 1 thread...
 * Starting Barrier on 3 threads...
Tried aggregator 1 time.
LP Presolve eliminated 3198 rows and 876 columns.
Reduced LP has 24002 rows, 23122 columns, and 238403 nonzeros.
Presolve time = 0.10 sec. (64.94 ticks)
Symmetry aggregator did 24417 additional substitutions.

Iteration log . . .
Iteration:     1   Dual objective     =             0.000000

Dual crossover.
  Dual:  Fixing 169 variables.
      168 DMoves:  Infeasibility  4.59077415e-14  Objective  1.62000000e+02
        0 DMoves:  Infeasibility  2.59792382e-14  Objective  1.62000000e+02
  Dual:  Pushed 13, exchanged 156.
  Primal:  Fixing 90 variables.
       89 PMoves:  Infeasibility  0.00000000e+00  Objective  1.62000000e+02
        0 PMoves:  Infeasibility  0.00000000e+00  Objective  1.62000000e+02
  Primal:  Pushed 52, exchanged 38.

Dual simplex solved model.


Solution status from MIP model:
-- Processing time: 0.192 sec.
-- Memory used: 85.376 MB
-- Best bound: inf
-- Obj value: 162
-- Gap: inf%
-- Total distance: 486
-- Total tardiness: 0
-- Largest tardiness: 0
